nN = 10;
nR = 30;
nH = 2;

a = [[18, 24, 18, 25, 18, 18, 18, 17, 25, 16, 21, 20, 17, 20, 20, 19, 20, 16, 19, 20, 22, 20, 24, 21, 18, 22, 22, 24, 19, 16], [20, 21, 23, 16, 21, 18, 20, 25, 15, 21, 22, 21, 19, 25, 20, 16, 18, 25, 23, 17, 21, 20, 17, 18, 16, 21, 19, 23, 16, 24], [18, 21, 19, 15, 25, 22, 15, 20, 18, 24, 21, 19, 25, 19, 19, 15, 15, 16, 25, 20, 23, 22, 17, 23, 16, 25, 16, 25, 24, 17], [20, 22, 24, 17, 19, 18, 15, 15, 21, 23, 22, 22, 24, 17, 25, 15, 25, 25, 16, 24, 19, 25, 22, 15, 18, 17, 20, 24, 21, 23], [24, 18, 24, 16, 24, 21, 16, 15, 19, 25, 17, 16, 22, 22, 24, 25, 15, 19, 18, 18, 22, 18, 23, 23, 17, 20, 17, 15, 23, 22], [21, 20, 25, 17, 21, 22, 23, 23, 15, 23, 23, 23, 18, 24, 21, 25, 16, 17, 23, 23, 19, 22, 16, 22, 16, 15, 22, 22, 23, 24], [25, 24, 23, 22, 17, 18, 25, 18, 18, 17, 17, 22, 22, 24, 17, 21, 18, 24, 23, 21, 22, 22, 16, 16, 23, 24, 19, 16, 17, 22], [16, 18, 25, 25, 15, 22, 18, 15, 19, 17, 23, 20, 22, 16, 19, 18, 17, 20, 23, 15, 21, 22, 19, 22, 21, 18, 22, 24, 21, 18], [20, 16, 25, 19, 17, 20, 15, 16, 24, 17, 20, 15, 22, 20, 15, 24, 15, 19, 22, 18, 19, 25, 19, 21, 21, 24, 22, 23, 24, 19], [25, 22, 24, 20, 18, 24, 23, 17, 16, 24, 16, 24, 15, 24, 17, 16, 18, 16, 17, 21, 24, 21, 17, 20, 16, 20, 17, 16, 18, 21]];
c = [[[0, 0, 0, 0, 0, 0, 0, 0, 0, 0, 0, 0, 0, 0, 0, 0, 0, 0, 0, 0, 0, 0, 0, 0, 0, 0, 0, 0, 0, 0], [41, 31, 43, 35, 46, 36, 34, 42, 30, 32, 32, 50, 49, 45, 50, 48, 31, 49, 43, 38, 33, 39, 42, 32, 32, 36, 39, 32, 38, 45], [43, 33, 30, 44, 48, 47, 37, 37, 40, 41, 32, 36, 45, 42, 31, 37, 42, 30, 43, 36, 34, 47, 40, 43, 39, 48, 49, 41, 47, 40], [44, 30, 32, 35, 48, 43, 43, 44, 35, 39, 39, 33, 34, 30, 45, 48, 38, 32, 33, 49, 46, 47, 49, 31, 43, 32, 43, 47, 39, 36], [38, 37, 37, 38, 35, 44, 44, 40, 42, 49, 50, 32, 47, 39, 49, 45, 33, 47, 47, 35, 43, 43, 46, 47, 30, 44, 47, 33, 50, 35], [35, 44, 39, 31, 43, 41, 43, 33, 49, 42, 35, 46, 40, 34, 50, 44, 31, 36, 37, 35, 37, 37, 43, 49, 32, 50, 37, 41, 35, 44], [39, 38, 31, 43, 45, 41, 31, 33, 44, 39, 33, 30, 42, 43, 30, 44, 45, 42, 42, 49, 48, 37, 40, 46, 48, 47, 44, 36, 32, 35], [44, 33, 33, 44, 39, 45, 38, 46, 41, 34, 39, 33, 33, 50, 31, 37, 50, 40, 39, 35, 33, 39, 46, 34, 35, 36, 35, 31, 30, 30], [48, 39, 42, 31, 30, 47, 50, 47, 35, 42, 49, 33, 39, 38, 31, 38, 33, 47, 34, 40, 31, 48, 50, 40, 35, 30, 36, 37, 41, 35], [35, 50, 44, 50, 31, 34, 30, 49, 37, 47, 41, 32, 41, 36, 39, 42, 50, 33, 50, 49, 34, 39, 40, 41, 50, 46, 38, 36, 35, 39]], [[0, 0, 0, 0, 0, 0, 0, 0, 0, 0, 0, 0, 0, 0, 0, 0, 0, 0, 0, 0, 0, 0, 0, 0, 0, 0, 0, 0, 0, 0], [0, 0, 0, 0, 0, 0, 0, 0, 0, 0, 0, 0, 0, 0, 0, 0, 0, 0, 0, 0, 0, 0, 0, 0, 0, 0, 0, 0, 0, 0], [35, 46, 46, 43, 42, 34, 42, 38, 39, 33, 48, 43, 32, 46, 44, 45, 32, 50, 48, 33, 37, 31, 48, 34, 34, 41, 33, 36, 40, 40], [38, 34, 36, 41, 45, 44, 46, 50, 44, 32, 32, 44, 40, 40, 38, 49, 48, 47, 46, 30, 49, 50, 47, 50, 33, 48, 43, 43, 50, 31], [50, 37, 47, 44, 46, 38, 44, 30, 39, 38, 39, 44, 48, 36, 35, 40, 45, 49, 34, 38, 42, 30, 48, 34, 34, 36, 32, 46, 44, 33], [45, 48, 40, 32, 35, 32, 35, 32, 37, 37, 44, 45, 47, 50, 39, 34, 38, 50, 39, 39, 44, 34, 38, 38, 39, 35, 30, 47, 40, 44], [41, 31, 45, 45, 45, 31, 37, 50, 50, 39, 30, 49, 41, 37, 40, 40, 31, 44, 36, 50, 46, 30, 38, 30, 40, 40, 44, 45, 45, 34], [30, 42, 44, 48, 36, 50, 49, 35, 34, 31, 44, 42, 45, 38, 41, 33, 35, 46, 46, 41, 39, 35, 42, 47, 49, 46, 50, 35, 39, 36], [42, 37, 39, 50, 32, 32, 43, 37, 32, 32, 40, 46, 41, 38, 48, 43, 40, 46, 41, 37, 41, 32, 30, 43, 39, 30, 35, 37, 40, 37], [44, 41, 39, 46, 49, 38, 41, 45, 40, 32, 42, 50, 39, 33, 49, 40, 32, 40, 41, 47, 44, 49, 30, 49, 34, 32, 41, 48, 40, 44]], [[0, 0, 0, 0, 0, 0, 0, 0, 0, 0, 0, 0, 0, 0, 0, 0, 0, 0, 0, 0, 0, 0, 0, 0, 0, 0, 0, 0, 0, 0], [0, 0, 0, 0, 0, 0, 0, 0, 0, 0, 0, 0, 0, 0, 0, 0, 0, 0, 0, 0, 0, 0, 0, 0, 0, 0, 0, 0, 0, 0], [0, 0, 0, 0, 0, 0, 0, 0, 0, 0, 0, 0, 0, 0, 0, 0, 0, 0, 0, 0, 0, 0, 0, 0, 0, 0, 0, 0, 0, 0], [33, 49, 40, 30, 34, 43, 50, 37, 49, 31, 36, 45, 48, 48, 46, 33, 36, 34, 39, 38, 38, 50, 42, 33, 41, 33, 41, 39, 49, 40], [37, 46, 30, 45, 33, 39, 31, 30, 39, 45, 47, 40, 43, 38, 49, 50, 47, 50, 48, 35, 41, 45, 50, 42, 44, 39, 39, 36, 39, 37], [32, 48, 39, 50, 40, 49, 50, 46, 31, 35, 39, 50, 41, 40, 32, 39, 35, 38, 31, 39, 49, 37, 31, 41, 36, 30, 41, 38, 39, 46], [37, 43, 43, 50, 31, 37, 39, 45, 31, 42, 48, 50, 44, 37, 31, 40, 36, 31, 34, 47, 49, 30, 38, 36, 37, 42, 40, 48, 39, 38], [33, 45, 42, 31, 43, 41, 33, 50, 37, 46, 36, 46, 39, 50, 30, 43, 38, 40, 44, 30, 44, 42, 32, 38, 36, 43, 43, 40, 37, 35], [44, 34, 49, 43, 46, 46, 40, 31, 40, 31, 32, 41, 43, 37, 46, 30, 34, 49, 32, 32, 37, 47, 40, 38, 39, 31, 41, 42, 40, 38], [43, 38, 44, 40, 47, 45, 43, 50, 31, 46, 30, 44, 46, 37, 32, 32, 46, 49, 40, 43, 34, 32, 36, 45, 41, 32, 40, 44, 31, 41]], [[0, 0, 0, 0, 0, 0, 0, 0, 0, 0, 0, 0, 0, 0, 0, 0, 0, 0, 0, 0, 0, 0, 0, 0, 0, 0, 0, 0, 0, 0], [0, 0, 0, 0, 0, 0, 0, 0, 0, 0, 0, 0, 0, 0, 0, 0, 0, 0, 0, 0, 0, 0, 0, 0, 0, 0, 0, 0, 0, 0], [0, 0, 0, 0, 0, 0, 0, 0, 0, 0, 0, 0, 0, 0, 0, 0, 0, 0, 0, 0, 0, 0, 0, 0, 0, 0, 0, 0, 0, 0], [0, 0, 0, 0, 0, 0, 0, 0, 0, 0, 0, 0, 0, 0, 0, 0, 0, 0, 0, 0, 0, 0, 0, 0, 0, 0, 0, 0, 0, 0], [35, 31, 40, 49, 41, 31, 36, 48, 39, 49, 31, 37, 34, 47, 33, 33, 42, 31, 33, 40, 38, 47, 49, 33, 48, 44, 33, 35, 35, 46], [48, 30, 46, 38, 37, 39, 30, 34, 30, 31, 30, 44, 41, 39, 46, 49, 33, 39, 49, 30, 36, 30, 47, 32, 45, 48, 37, 30, 32, 49], [42, 42, 50, 42, 37, 31, 36, 41, 50, 47, 41, 31, 49, 40, 44, 42, 41, 34, 50, 45, 44, 46, 46, 37, 47, 48, 33, 48, 30, 38], [40, 35, 42, 48, 36, 40, 43, 43, 44, 42, 30, 33, 32, 43, 33, 33, 30, 38, 47, 45, 38, 45, 41, 38, 35, 42, 42, 48, 41, 39], [50, 36, 36, 34, 41, 39, 32, 41, 48, 44, 44, 41, 44, 40, 45, 36, 32, 40, 49, 40, 42, 38, 38, 36, 50, 31, 49, 47, 33, 46], [48, 47, 45, 50, 38, 49, 41, 32, 45, 35, 34, 34, 34, 50, 35, 49, 37, 30, 41, 41, 46, 35, 36, 35, 42, 37, 44, 49, 44, 42]], [[0, 0, 0, 0, 0, 0, 0, 0, 0, 0, 0, 0, 0, 0, 0, 0, 0, 0, 0, 0, 0, 0, 0, 0, 0, 0, 0, 0, 0, 0], [0, 0, 0, 0, 0, 0, 0, 0, 0, 0, 0, 0, 0, 0, 0, 0, 0, 0, 0, 0, 0, 0, 0, 0, 0, 0, 0, 0, 0, 0], [0, 0, 0, 0, 0, 0, 0, 0, 0, 0, 0, 0, 0, 0, 0, 0, 0, 0, 0, 0, 0, 0, 0, 0, 0, 0, 0, 0, 0, 0], [0, 0, 0, 0, 0, 0, 0, 0, 0, 0, 0, 0, 0, 0, 0, 0, 0, 0, 0, 0, 0, 0, 0, 0, 0, 0, 0, 0, 0, 0], [0, 0, 0, 0, 0, 0, 0, 0, 0, 0, 0, 0, 0, 0, 0, 0, 0, 0, 0, 0, 0, 0, 0, 0, 0, 0, 0, 0, 0, 0], [31, 37, 33, 49, 32, 47, 40, 48, 43, 48, 47, 34, 40, 31, 45, 46, 46, 45, 31, 49, 49, 43, 38, 38, 31, 31, 32, 43, 33, 44], [34, 39, 36, 35, 35, 41, 32, 30, 38, 30, 48, 36, 48, 36, 41, 49, 35, 43, 32, 30, 47, 48, 30, 32, 36, 39, 46, 38, 46, 35], [30, 30, 47, 30, 44, 47, 41, 46, 34, 40, 39, 45, 34, 46, 30, 39, 35, 50, 42, 30, 50, 34, 48, 30, 40, 41, 41, 48, 41, 42], [33, 42, 48, 40, 41, 44, 47, 50, 41, 44, 39, 39, 47, 34, 36, 49, 38, 35, 31, 39, 32, 48, 42, 38, 47, 42, 49, 48, 32, 48], [32, 46, 32, 39, 39, 41, 39, 40, 50, 31, 42, 42, 37, 38, 39, 41, 30, 47, 48, 42, 43, 43, 36, 48, 49, 47, 47, 36, 33, 48]], [[0, 0, 0, 0, 0, 0, 0, 0, 0, 0, 0, 0, 0, 0, 0, 0, 0, 0, 0, 0, 0, 0, 0, 0, 0, 0, 0, 0, 0, 0], [0, 0, 0, 0, 0, 0, 0, 0, 0, 0, 0, 0, 0, 0, 0, 0, 0, 0, 0, 0, 0, 0, 0, 0, 0, 0, 0, 0, 0, 0], [0, 0, 0, 0, 0, 0, 0, 0, 0, 0, 0, 0, 0, 0, 0, 0, 0, 0, 0, 0, 0, 0, 0, 0, 0, 0, 0, 0, 0, 0], [0, 0, 0, 0, 0, 0, 0, 0, 0, 0, 0, 0, 0, 0, 0, 0, 0, 0, 0, 0, 0, 0, 0, 0, 0, 0, 0, 0, 0, 0], [0, 0, 0, 0, 0, 0, 0, 0, 0, 0, 0, 0, 0, 0, 0, 0, 0, 0, 0, 0, 0, 0, 0, 0, 0, 0, 0, 0, 0, 0], [0, 0, 0, 0, 0, 0, 0, 0, 0, 0, 0, 0, 0, 0, 0, 0, 0, 0, 0, 0, 0, 0, 0, 0, 0, 0, 0, 0, 0, 0], [43, 39, 48, 38, 50, 47, 36, 33, 45, 37, 41, 40, 33, 37, 42, 39, 30, 46, 41, 46, 41, 43, 32, 36, 44, 36, 38, 48, 39, 37], [45, 39, 38, 39, 40, 49, 49, 48, 46, 35, 38, 46, 40, 49, 39, 39, 32, 45, 41, 44, 48, 36, 37, 33, 45, 47, 39, 48, 30, 33], [43, 35, 44, 40, 42, 47, 49, 50, 46, 37, 30, 50, 32, 35, 47, 40, 30, 49, 34, 33, 39, 38, 37, 33, 30, 35, 38, 49, 41, 50], [45, 35, 37, 35, 45, 48, 45, 44, 46, 33, 37, 49, 43, 35, 45, 31, 37, 34, 45, 48, 35, 48, 30, 50, 30, 49, 46, 44, 49, 38]], [[0, 0, 0, 0, 0, 0, 0, 0, 0, 0, 0, 0, 0, 0, 0, 0, 0, 0, 0, 0, 0, 0, 0, 0, 0, 0, 0, 0, 0, 0], [0, 0, 0, 0, 0, 0, 0, 0, 0, 0, 0, 0, 0, 0, 0, 0, 0, 0, 0, 0, 0, 0, 0, 0, 0, 0, 0, 0, 0, 0], [0, 0, 0, 0, 0, 0, 0, 0, 0, 0, 0, 0, 0, 0, 0, 0, 0, 0, 0, 0, 0, 0, 0, 0, 0, 0, 0, 0, 0, 0], [0, 0, 0, 0, 0, 0, 0, 0, 0, 0, 0, 0, 0, 0, 0, 0, 0, 0, 0, 0, 0, 0, 0, 0, 0, 0, 0, 0, 0, 0], [0, 0, 0, 0, 0, 0, 0, 0, 0, 0, 0, 0, 0, 0, 0, 0, 0, 0, 0, 0, 0, 0, 0, 0, 0, 0, 0, 0, 0, 0], [0, 0, 0, 0, 0, 0, 0, 0, 0, 0, 0, 0, 0, 0, 0, 0, 0, 0, 0, 0, 0, 0, 0, 0, 0, 0, 0, 0, 0, 0], [0, 0, 0, 0, 0, 0, 0, 0, 0, 0, 0, 0, 0, 0, 0, 0, 0, 0, 0, 0, 0, 0, 0, 0, 0, 0, 0, 0, 0, 0], [47, 50, 36, 34, 41, 48, 46, 46, 31, 36, 34, 47, 46, 30, 50, 34, 44, 37, 48, 31, 47, 38, 40, 37, 32, 31, 45, 38, 49, 40], [39, 32, 47, 33, 34, 47, 48, 31, 31, 49, 37, 34, 42, 37, 50, 45, 43, 43, 41, 37, 46, 40, 48, 32, 34, 32, 49, 44, 31, 44], [46, 45, 41, 30, 43, 40, 36, 50, 31, 44, 31, 45, 34, 37, 31, 43, 47, 48, 50, 41, 49, 35, 40, 40, 42, 46, 37, 32, 31, 41]], [[0, 0, 0, 0, 0, 0, 0, 0, 0, 0, 0, 0, 0, 0, 0, 0, 0, 0, 0, 0, 0, 0, 0, 0, 0, 0, 0, 0, 0, 0], [0, 0, 0, 0, 0, 0, 0, 0, 0, 0, 0, 0, 0, 0, 0, 0, 0, 0, 0, 0, 0, 0, 0, 0, 0, 0, 0, 0, 0, 0], [0, 0, 0, 0, 0, 0, 0, 0, 0, 0, 0, 0, 0, 0, 0, 0, 0, 0, 0, 0, 0, 0, 0, 0, 0, 0, 0, 0, 0, 0], [0, 0, 0, 0, 0, 0, 0, 0, 0, 0, 0, 0, 0, 0, 0, 0, 0, 0, 0, 0, 0, 0, 0, 0, 0, 0, 0, 0, 0, 0], [0, 0, 0, 0, 0, 0, 0, 0, 0, 0, 0, 0, 0, 0, 0, 0, 0, 0, 0, 0, 0, 0, 0, 0, 0, 0, 0, 0, 0, 0], [0, 0, 0, 0, 0, 0, 0, 0, 0, 0, 0, 0, 0, 0, 0, 0, 0, 0, 0, 0, 0, 0, 0, 0, 0, 0, 0, 0, 0, 0], [0, 0, 0, 0, 0, 0, 0, 0, 0, 0, 0, 0, 0, 0, 0, 0, 0, 0, 0, 0, 0, 0, 0, 0, 0, 0, 0, 0, 0, 0], [0, 0, 0, 0, 0, 0, 0, 0, 0, 0, 0, 0, 0, 0, 0, 0, 0, 0, 0, 0, 0, 0, 0, 0, 0, 0, 0, 0, 0, 0], [44, 44, 34, 46, 40, 43, 30, 38, 47, 35, 45, 33, 43, 37, 41, 48, 38, 36, 40, 31, 37, 30, 31, 46, 47, 35, 44, 45, 33, 43], [43, 31, 44, 32, 41, 31, 45, 41, 34, 46, 43, 50, 48, 49, 48, 35, 47, 30, 50, 38, 41, 50, 40, 32, 42, 42, 46, 31, 43, 36]], [[0, 0, 0, 0, 0, 0, 0, 0, 0, 0, 0, 0, 0, 0, 0, 0, 0, 0, 0, 0, 0, 0, 0, 0, 0, 0, 0, 0, 0, 0], [0, 0, 0, 0, 0, 0, 0, 0, 0, 0, 0, 0, 0, 0, 0, 0, 0, 0, 0, 0, 0, 0, 0, 0, 0, 0, 0, 0, 0, 0], [0, 0, 0, 0, 0, 0, 0, 0, 0, 0, 0, 0, 0, 0, 0, 0, 0, 0, 0, 0, 0, 0, 0, 0, 0, 0, 0, 0, 0, 0], [0, 0, 0, 0, 0, 0, 0, 0, 0, 0, 0, 0, 0, 0, 0, 0, 0, 0, 0, 0, 0, 0, 0, 0, 0, 0, 0, 0, 0, 0], [0, 0, 0, 0, 0, 0, 0, 0, 0, 0, 0, 0, 0, 0, 0, 0, 0, 0, 0, 0, 0, 0, 0, 0, 0, 0, 0, 0, 0, 0], [0, 0, 0, 0, 0, 0, 0, 0, 0, 0, 0, 0, 0, 0, 0, 0, 0, 0, 0, 0, 0, 0, 0, 0, 0, 0, 0, 0, 0, 0], [0, 0, 0, 0, 0, 0, 0, 0, 0, 0, 0, 0, 0, 0, 0, 0, 0, 0, 0, 0, 0, 0, 0, 0, 0, 0, 0, 0, 0, 0], [0, 0, 0, 0, 0, 0, 0, 0, 0, 0, 0, 0, 0, 0, 0, 0, 0, 0, 0, 0, 0, 0, 0, 0, 0, 0, 0, 0, 0, 0], [0, 0, 0, 0, 0, 0, 0, 0, 0, 0, 0, 0, 0, 0, 0, 0, 0, 0, 0, 0, 0, 0, 0, 0, 0, 0, 0, 0, 0, 0], [50, 33, 34, 42, 40, 46, 40, 38, 43, 43, 34, 45, 48, 49, 35, 32, 32, 42, 30, 39, 37, 38, 36, 42, 48, 43, 48, 46, 36, 36]], [[0, 0, 0, 0, 0, 0, 0, 0, 0, 0, 0, 0, 0, 0, 0, 0, 0, 0, 0, 0, 0, 0, 0, 0, 0, 0, 0, 0, 0, 0], [0, 0, 0, 0, 0, 0, 0, 0, 0, 0, 0, 0, 0, 0, 0, 0, 0, 0, 0, 0, 0, 0, 0, 0, 0, 0, 0, 0, 0, 0], [0, 0, 0, 0, 0, 0, 0, 0, 0, 0, 0, 0, 0, 0, 0, 0, 0, 0, 0, 0, 0, 0, 0, 0, 0, 0, 0, 0, 0, 0], [0, 0, 0, 0, 0, 0, 0, 0, 0, 0, 0, 0, 0, 0, 0, 0, 0, 0, 0, 0, 0, 0, 0, 0, 0, 0, 0, 0, 0, 0], [0, 0, 0, 0, 0, 0, 0, 0, 0, 0, 0, 0, 0, 0, 0, 0, 0, 0, 0, 0, 0, 0, 0, 0, 0, 0, 0, 0, 0, 0], [0, 0, 0, 0, 0, 0, 0, 0, 0, 0, 0, 0, 0, 0, 0, 0, 0, 0, 0, 0, 0, 0, 0, 0, 0, 0, 0, 0, 0, 0], [0, 0, 0, 0, 0, 0, 0, 0, 0, 0, 0, 0, 0, 0, 0, 0, 0, 0, 0, 0, 0, 0, 0, 0, 0, 0, 0, 0, 0, 0], [0, 0, 0, 0, 0, 0, 0, 0, 0, 0, 0, 0, 0, 0, 0, 0, 0, 0, 0, 0, 0, 0, 0, 0, 0, 0, 0, 0, 0, 0], [0, 0, 0, 0, 0, 0, 0, 0, 0, 0, 0, 0, 0, 0, 0, 0, 0, 0, 0, 0, 0, 0, 0, 0, 0, 0, 0, 0, 0, 0], [0, 0, 0, 0, 0, 0, 0, 0, 0, 0, 0, 0, 0, 0, 0, 0, 0, 0, 0, 0, 0, 0, 0, 0, 0, 0, 0, 0, 0, 0]]];

q = [[[14, 124], [18, 105], [20, 112], [16, 105], [18, 109], [17, 118], [21, 117], [25, 124], [16, 106], [22, 113], [9, 109], [25, 105], [7, 119], [16, 105], [24, 105], [5, 121], [9, 112], [13, 117], [10, 112], [8, 111], [24, 124], [20, 124], [21, 118], [8, 116], [11, 107], [22, 121], [24, 109], [13, 121], [13, 112], [14, 105]], [[25, 118], [25, 119], [6, 108], [5, 118], [21, 121], [25, 120], [24, 107], [12, 105], [14, 108], [19, 107], [15, 110], [12, 113], [19, 123], [5, 125], [16, 114], [8, 118], [19, 110], [9, 113], [11, 111], [6, 105], [15, 106], [22, 120], [16, 110], [7, 121], [12, 109], [15, 110], [21, 125], [18, 108], [17, 107], [5, 124]], [[10, 121], [8, 107], [15, 122], [8, 113], [12, 120], [25, 116], [8, 116], [19, 106], [12, 111], [11, 111], [16, 105], [15, 120], [22, 106], [25, 119], [15, 120], [20, 119], [16, 115], [8, 119], [18, 109], [21, 108], [22, 116], [17, 124], [12, 124], [18, 109], [5, 116], [5, 109], [5, 119], [24, 121], [11, 107], [6, 119]], [[25, 120], [11, 125], [23, 116], [9, 118], [18, 121], [18, 109], [19, 123], [25, 105], [25, 108], [16, 114], [17, 122], [24, 125], [6, 111], [10, 123], [17, 115], [18, 124], [7, 118], [14, 105], [25, 122], [23, 120], [9, 116], [7, 120], [12, 121], [8, 116], [16, 115], [17, 107], [15, 111], [11, 122], [24, 111], [17, 125]], [[12, 121], [5, 105], [13, 116], [14, 123], [5, 115], [7, 123], [10, 112], [21, 124], [8, 120], [12, 117], [20, 119], [6, 125], [15, 108], [7, 113], [7, 113], [24, 116], [23, 109], [7, 111], [25, 125], [15, 119], [13, 115], [16, 122], [6, 125], [23, 124], [8, 108], [14, 106], [10, 114], [10, 114], [23, 112], [13, 124]], [[15, 117], [17, 117], [15, 122], [10, 120], [24, 118], [12, 122], [10, 122], [8, 116], [22, 107], [10, 120], [18, 110], [25, 105], [16, 110], [24, 121], [17, 115], [13, 106], [16, 118], [24, 118], [22, 118], [13, 110], [23, 116], [22, 115], [10, 116], [9, 114], [19, 112], [16, 113], [12, 108], [15, 121], [21, 110], [7, 108]], [[13, 125], [24, 108], [17, 116], [19, 111], [21, 123], [11, 116], [15, 110], [21, 121], [11, 112], [13, 123], [6, 106], [19, 116], [23, 119], [11, 122], [16, 121], [15, 110], [19, 121], [14, 121], [17, 116], [6, 119], [11, 122], [8, 107], [16, 120], [17, 112], [6, 114], [15, 123], [23, 105], [23, 114], [14, 112], [11, 124]], [[15, 117], [17, 112], [25, 110], [23, 125], [21, 108], [7, 123], [24, 112], [18, 106], [20, 124], [24, 123], [8, 109], [20, 118], [7, 110], [22, 118], [17, 108], [17, 108], [7, 113], [20, 106], [15, 125], [20, 121], [15, 108], [15, 112], [8, 108], [9, 112], [14, 122], [25, 119], [20, 108], [14, 111], [10, 106], [16, 116]], [[17, 123], [13, 106], [14, 125], [7, 108], [16, 117], [16, 115], [19, 121], [22, 106], [23, 125], [17, 119], [24, 110], [22, 118], [11, 111], [13, 110], [22, 112], [12, 105], [22, 109], [19, 120], [15, 122], [6, 123], [21, 125], [14, 121], [21, 118], [13, 105], [21, 123], [13, 119], [9, 124], [21, 122], [8, 112], [17, 106]], [[5, 124], [14, 115], [21, 107], [9, 112], [5, 112], [9, 124], [16, 115], [11, 120], [24, 125], [14, 115], [10, 119], [22, 115], [18, 115], [19, 115], [16, 112], [10, 115], [6, 105], [12, 123], [7, 117], [14, 106], [12, 112], [22, 116], [12, 119], [21, 115], [19, 124], [16, 121], [9, 114], [15, 125], [8, 122], [22, 115]]];
Q = [[38, 273], [35, 274], [34, 276], [38, 281], [31, 280], [38, 276], [36, 280], [39, 274], [39, 279], [33, 280]];
